NAME          
ROWS
 N  OBJ
 L  c1
 L  c2
 L  c3
 L  c4
COLUMNS
    MARKER    'MARKER'                 'INTORG'
    x         c1        -25
    x         c2        1
    x         c3        2
    x         c4        -2
    x         OBJ       -1
    y         c1        -20
    y         c2        2
    y         c3        -1
    y         c4        -10
    y         OBJ       -10
RHS
    rhs       c1        30
    rhs       c2        10
    rhs       c3        15
    rhs       c4        -15
RANGES
BOUNDS
 FR bounds    x
 FR bounds    y
ENDATA
